<number of tasks>
58

<cycle time>
71

<task times>
1 10
2 53
3 41
4 36
5 35
6 17
7 34
8 23
9 14
10 52
11 33
12 34
13 12
14 52
15 12
16 33
17 44
18 7
19 15
20 13
21 29
22 37
23 43
24 23
25 24
26 9
27 16
28 12
29 26
30 22
31 51
32 47
33 34
34 23
35 12
36 52
37 12
38 33
39 44
40 7
41 15
42 13
43 29
44 37
45 43
46 23
47 24
48 9
49 16
50 12
51 26
52 12
53 52
54 12
55 33
56 44
57 7
58 15

<precedence relations>
1,9
2,25
3,21
3,22
4,10
5,36
6,23
6,24
7,43
8,44
9,11
11,13
11,14
11,15
12,17
13,17
14,17
15,17
16,18
17,20
18,19
19,23
20,21
20,25
21,26
21,44
22,27
23,31
24,31
25,38
26,29
27,30
28,32
28,33
29,31
30,34
31,36
32,45
33,35
34,36
35,43
36,37
36,38
37,39
37,40
37,41
38,52
39,43
40,43
41,42
42,43
43,45
44,45
45,46
45,48
45,49
46,47
46,50
47,51
48,55
49,58
50,58
51,52
52,53
53,54
54,55
54,56
55,57
56,57
57,58

<setup times forward>
1,2:2
1,3:2
1,4:1
1,5:1
1,6:2
1,7:3
1,8:3
1,9:1
1,10:1
1,12:1
1,16:1
1,18:1
1,19:1
1,22:1
1,23:3
1,24:1
1,27:3
1,33:1
1,35:1
2,1:2
2,3:4
2,4:1
2,5:1
2,7:5
2,8:5
2,9:3
2,10:3
2,11:1
2,12:3
2,13:2
2,14:3
2,15:3
2,16:1
2,17:2
2,18:3
2,19:3
2,20:2
2,21:4
2,22:1
2,23:5
2,24:3
2,25:1
2,26:5
2,27:5
2,28:2
2,29:2
2,30:2
2,31:1
2,32:2
2,33:1
2,34:2
2,35:1
2,39:5
2,44:5
2,45:3
2,46:1
2,47:1
2,48:4
2,50:4
3,1:2
3,2:4
3,4:3
3,5:3
3,6:4
3,7:1
3,8:1
3,9:1
3,10:1
3,11:3
3,12:1
3,13:2
3,14:1
3,15:1
3,16:3
3,17:2
3,18:1
3,19:1
3,20:2
3,22:3
3,23:1
3,24:1
3,25:3
3,28:2
3,32:2
3,33:3
3,35:3
4,1:1
4,2:1
4,3:3
4,6:1
4,7:4
4,8:4
4,9:2
4,10:2
4,12:2
4,13:1
4,14:2
4,15:2
4,17:1
4,18:2
4,19:2
4,20:1
4,21:3
4,23:4
4,24:2
4,26:4
4,27:4
4,28:1
4,29:1
4,30:1
4,32:1
4,34:1
4,36:1
4,37:1
4,38:1
4,39:4
4,40:1
4,41:1
4,42:1
4,43:1
4,44:4
4,45:2
4,48:3
4,49:1
4,50:3
4,51:1
4,52:1
4,53:1
4,54:3
4,55:3
5,1:1
5,2:1
5,3:3
5,6:1
5,7:4
5,8:4
5,9:2
5,10:2
5,12:2
5,13:1
5,14:2
5,15:2
5,17:1
5,18:2
5,19:2
5,20:1
5,21:3
5,23:4
5,24:2
5,26:4
5,27:4
5,28:1
5,29:1
5,30:1
5,32:1
5,34:1
5,36:1
5,44:4
6,1:2
6,3:4
6,4:1
6,5:1
6,7:5
6,8:5
6,9:3
6,10:3
6,11:1
6,12:3
6,13:2
6,14:3
6,15:3
6,16:1
6,17:2
6,18:3
6,19:3
6,20:2
6,21:4
6,22:1
6,23:5
6,24:3
6,25:1
6,26:5
6,27:5
6,28:2
6,29:2
6,30:2
6,32:2
6,33:1
6,34:2
6,35:1
6,44:5
7,1:3
7,2:5
7,3:1
7,4:4
7,5:4
7,6:5
7,9:2
7,10:2
7,11:4
7,12:2
7,13:3
7,14:2
7,15:2
7,16:4
7,17:3
7,18:2
7,19:2
7,20:3
7,21:1
7,22:4
7,24:2
7,25:4
7,28:3
7,29:3
7,30:3
7,31:4
7,32:3
7,33:4
7,34:3
7,35:4
7,36:5
7,37:5
7,38:5
7,40:5
7,41:5
7,42:5
7,43:5
8,1:3
8,2:5
8,3:1
8,4:4
8,5:4
8,6:5
8,9:2
8,10:2
8,11:4
8,12:2
8,13:3
8,14:2
8,15:2
8,16:4
8,17:3
8,18:2
8,19:2
8,20:3
8,21:1
8,22:4
8,24:2
8,25:4
8,28:3
8,29:3
8,30:3
8,31:4
8,32:3
8,33:4
8,34:3
8,35:4
8,36:5
8,37:5
8,38:5
8,40:5
8,41:5
8,42:5
8,43:5
9,2:3
9,3:1
9,4:2
9,5:2
9,6:3
9,7:2
9,8:2
9,11:2
9,16:2
9,22:2
9,23:2
9,27:2
9,28:1
9,30:1
9,32:1
9,33:2
9,34:1
9,35:2
10,1:1
10,2:3
10,3:1
10,5:2
10,6:3
10,7:2
10,8:2
10,11:2
10,13:1
10,16:2
10,17:1
10,20:1
10,21:1
10,22:2
10,23:2
10,25:2
10,26:2
10,27:2
10,28:1
10,29:1
10,30:1
10,31:2
10,32:1
10,33:2
10,34:1
10,35:2
10,36:3
10,37:3
10,38:3
10,39:2
10,40:3
10,41:3
10,42:3
10,43:3
10,44:2
10,46:2
10,47:2
10,48:1
10,49:3
10,50:1
10,51:3
10,52:3
10,53:3
10,54:1
10,55:1
10,56:2
10,57:2
10,58:2
11,2:1
11,3:3
11,6:1
11,7:4
11,8:4
11,10:2
11,12:2
11,13:1
11,14:2
11,15:2
11,18:2
11,19:2
11,23:4
11,24:2
11,27:4
11,28:1
11,30:1
11,32:1
11,34:1
12,1:1
12,2:3
12,3:1
12,4:2
12,5:2
12,6:3
12,7:2
12,8:2
12,11:2
12,13:1
12,16:2
12,17:1
12,22:2
12,23:2
12,27:2
12,28:1
12,30:1
12,32:1
12,33:2
12,34:1
12,35:2
13,2:2
13,3:2
13,4:1
13,5:1
13,6:2
13,7:3
13,8:3
13,10:1
13,12:1
13,14:1
13,15:1
13,16:1
13,18:1
13,19:1
13,22:1
13,23:3
13,24:1
13,27:3
13,33:1
13,35:1
14,2:3
14,3:1
14,4:2
14,5:2
14,6:3
14,7:2
14,8:2
14,13:1
14,16:2
14,17:1
14,22:2
14,23:2
14,27:2
14,28:1
14,30:1
14,32:1
14,33:2
14,34:1
14,35:2
15,2:3
15,3:1
15,4:2
15,5:2
15,6:3
15,7:2
15,8:2
15,13:1
15,16:2
15,17:1
15,22:2
15,23:2
15,27:2
15,28:1
15,30:1
15,32:1
15,33:2
15,34:1
15,35:2
16,1:1
16,2:1
16,3:3
16,6:1
16,7:4
16,8:4
16,9:2
16,10:2
16,12:2
16,13:1
16,14:2
16,15:2
16,17:1
16,18:2
16,20:1
16,21:3
16,24:2
16,26:4
16,27:4
16,28:1
16,29:1
16,30:1
16,32:1
16,34:1
16,44:4
17,2:2
17,3:2
17,4:1
17,5:1
17,6:2
17,7:3
17,8:3
17,10:1
17,16:1
17,18:1
17,19:1
17,22:1
17,23:3
17,24:1
17,27:3
17,33:1
17,35:1
18,1:1
18,2:3
18,3:1
18,4:2
18,5:2
18,6:3
18,7:2
18,8:2
18,11:2
18,13:1
18,17:1
18,20:1
18,21:1
18,22:2
18,25:2
18,26:2
18,27:2
18,28:1
18,29:1
18,30:1
18,32:1
18,33:2
18,34:1
18,35:2
18,44:2
19,1:1
19,2:3
19,3:1
19,4:2
19,5:2
19,6:3
19,7:2
19,8:2
19,11:2
19,13:1
19,17:1
19,20:1
19,21:1
19,22:2
19,23:2
19,25:2
19,26:2
19,27:2
19,28:1
19,29:1
19,30:1
19,32:1
19,33:2
19,34:1
19,35:2
19,44:2
20,2:2
20,3:2
20,4:1
20,5:1
20,6:2
20,7:3
20,8:3
20,10:1
20,16:1
20,18:1
20,19:1
20,21:2
20,22:1
20,23:3
20,24:1
20,25:1
20,27:3
20,33:1
20,35:1
21,2:4
21,4:3
21,5:3
21,6:4
21,7:1
21,8:1
21,10:1
21,16:3
21,18:1
21,19:1
21,22:3
21,23:1
21,24:1
21,25:3
21,26:1
21,27:1
21,28:2
21,30:2
21,32:2
21,33:3
21,34:2
21,35:3
21,44:1
22,1:1
22,2:1
22,6:1
22,7:4
22,8:4
22,9:2
22,10:2
22,12:2
22,13:1
22,14:2
22,15:2
22,17:1
22,18:2
22,19:2
22,20:1
22,21:3
22,23:4
22,24:2
22,26:4
22,27:4
22,28:1
22,29:1
22,32:1
22,44:4
23,1:3
23,2:5
23,3:1
23,4:4
23,5:4
23,9:2
23,10:2
23,11:4
23,12:2
23,13:3
23,14:2
23,15:2
23,17:3
23,20:3
23,21:1
23,22:4
23,24:2
23,25:4
23,28:3
23,29:3
23,30:3
23,31:4
23,32:3
23,33:4
23,34:3
23,35:4
24,1:1
24,2:3
24,3:1
24,4:2
24,5:2
24,7:2
24,8:2
24,11:2
24,13:1
24,16:2
24,17:1
24,20:1
24,21:1
24,22:2
24,23:2
24,25:2
24,26:2
24,27:2
24,28:1
24,29:1
24,30:1
24,31:2
24,32:1
24,33:2
24,34:1
24,35:2
24,44:2
25,3:3
25,6:1
25,7:4
25,8:4
25,10:2
25,18:2
25,19:2
25,21:3
25,23:4
25,24:2
25,26:4
25,27:4
25,28:1
25,29:1
25,30:1
25,32:1
25,34:1
25,36:1
25,37:1
25,38:1
25,39:4
25,40:1
25,41:1
25,42:1
25,43:1
25,44:4
25,45:2
25,48:3
25,49:1
25,50:3
25,51:1
26,2:5
26,4:4
26,5:4
26,6:5
26,10:2
26,16:4
26,18:2
26,19:2
26,22:4
26,24:2
26,25:4
26,28:3
26,29:3
26,30:3
26,32:3
26,33:4
26,34:3
26,35:4
27,1:3
27,2:5
27,4:4
27,5:4
27,6:5
27,9:2
27,10:2
27,11:4
27,12:2
27,13:3
27,14:2
27,15:2
27,16:4
27,17:3
27,18:2
27,19:2
27,20:3
27,21:1
27,24:2
27,25:4
27,28:3
27,29:3
27,30:3
27,31:4
27,32:3
27,33:4
27,35:4
28,2:2
28,3:2
28,4:1
28,5:1
28,6:2
28,7:3
28,8:3
28,9:1
28,10:1
28,11:1
28,12:1
28,14:1
28,15:1
28,16:1
28,18:1
28,19:1
28,21:2
28,22:1
28,23:3
28,24:1
28,25:1
28,26:3
28,27:3
28,31:1
28,33:1
28,36:2
28,37:2
28,38:2
28,39:3
28,40:2
28,41:2
28,42:2
28,44:3
29,2:2
29,4:1
29,5:1
29,6:2
29,7:3
29,8:3
29,10:1
29,16:1
29,18:1
29,19:1
29,22:1
29,23:3
29,24:1
29,25:1
29,27:3
29,31:1
29,33:1
29,35:1
29,44:3
30,2:2
30,4:1
30,5:1
30,6:2
30,7:3
30,8:3
30,9:1
30,10:1
30,11:1
30,12:1
30,14:1
30,15:1
30,16:1
30,18:1
30,19:1
30,21:2
30,23:3
30,24:1
30,25:1
30,26:3
30,31:1
30,33:1
30,35:1
30,44:3
31,2:1
31,7:4
31,8:4
31,10:2
31,27:4
31,28:1
31,30:1
31,32:1
31,34:1
31,36:1
31,44:4
32,2:2
32,3:2
32,4:1
32,5:1
32,6:2
32,7:3
32,8:3
32,9:1
32,10:1
32,11:1
32,12:1
32,14:1
32,15:1
32,16:1
32,18:1
32,19:1
32,21:2
32,22:1
32,23:3
32,24:1
32,25:1
32,26:3
32,27:3
32,31:1
32,33:1
32,35:1
32,36:2
32,37:2
32,38:2
32,39:3
32,40:2
32,41:2
32,42:2
32,43:2
32,44:3
32,45:1
33,1:1
33,2:1
33,3:3
33,6:1
33,7:4
33,8:4
33,9:2
33,10:2
33,12:2
33,13:1
33,14:2
33,15:2
33,17:1
33,18:2
33,19:2
33,20:1
33,21:3
33,23:4
33,24:2
33,26:4
33,27:4
33,29:1
33,30:1
33,32:1
33,34:1
33,36:1
33,37:1
33,38:1
33,39:4
33,40:1
33,41:1
33,42:1
33,44:4
34,2:2
34,4:1
34,5:1
34,6:2
34,7:3
34,8:3
34,9:1
34,10:1
34,11:1
34,12:1
34,14:1
34,15:1
34,16:1
34,18:1
34,19:1
34,21:2
34,23:3
34,24:1
34,25:1
34,26:3
34,31:1
34,33:1
34,35:1
34,36:2
34,44:3
35,1:1
35,2:1
35,3:3
35,6:1
35,7:4
35,8:4
35,9:2
35,10:2
35,12:2
35,13:1
35,14:2
35,15:2
35,17:1
35,18:2
35,19:2
35,20:1
35,21:3
35,23:4
35,24:2
35,26:4
35,27:4
35,29:1
35,30:1
35,32:1
35,34:1
35,36:1
35,37:1
35,38:1
35,39:4
35,40:1
35,41:1
35,42:1
35,43:1
35,44:4
36,4:1
36,7:5
36,8:5
36,10:3
36,25:1
36,28:2
36,32:2
36,33:1
36,35:1
36,44:5
37,4:1
37,7:5
37,8:5
37,10:3
37,25:1
37,28:2
37,32:2
37,33:1
37,35:1
37,39:5
37,44:5
38,4:1
38,7:5
38,8:5
38,10:3
38,28:2
38,32:2
38,33:1
38,35:1
38,39:5
38,44:5
38,45:3
38,46:1
38,47:1
38,48:4
38,50:4
39,2:5
39,4:4
39,10:2
39,25:4
39,28:3
39,32:3
39,33:4
39,35:4
39,38:5
39,40:5
39,41:5
39,42:5
39,43:5
40,4:1
40,7:5
40,8:5
40,10:3
40,25:1
40,28:2
40,32:2
40,33:1
40,35:1
40,39:5
40,44:5
41,4:1
41,7:5
41,8:5
41,10:3
41,25:1
41,28:2
41,32:2
41,33:1
41,35:1
41,39:5
41,44:5
42,4:1
42,7:5
42,8:5
42,10:3
42,25:1
42,28:2
42,32:2
42,33:1
42,35:1
42,39:5
42,44:5
43,4:1
43,8:5
43,10:3
43,25:1
43,32:2
43,44:5
43,45:3
44,2:5
44,4:4
44,5:4
44,6:5
44,10:2
44,16:4
44,18:2
44,19:2
44,22:4
44,24:2
44,25:4
44,28:3
44,29:3
44,30:3
44,31:4
44,32:3
44,33:4
44,34:3
44,35:4
44,36:5
44,37:5
44,38:5
44,40:5
44,41:5
44,42:5
44,43:5
44,45:2
45,2:3
45,4:2
45,25:2
45,38:3
45,46:2
45,48:1
45,49:3
46,2:1
46,10:2
46,38:1
46,48:3
46,49:1
46,50:3
47,2:1
47,10:2
47,38:1
47,48:3
47,49:1
47,50:3
47,51:1
48,2:4
48,4:3
48,10:1
48,25:3
48,38:4
48,46:3
48,47:3
48,49:4
48,51:4
48,52:4
48,53:4
48,56:3
49,4:1
49,10:3
49,25:1
49,46:1
49,47:1
49,48:4
49,50:4
49,54:4
49,55:4
49,56:1
49,57:1
49,58:1
50,2:4
50,4:3
50,10:1
50,25:3
50,38:4
50,47:3
50,49:4
50,51:4
50,52:4
50,53:4
50,56:3
50,57:3
50,58:3
51,4:1
51,10:3
51,25:1
51,48:4
51,50:4
52,4:1
52,10:3
52,48:4
52,50:4
53,4:1
53,10:3
53,48:4
53,50:4
53,54:4
54,4:3
54,10:1
54,49:4
54,56:3
55,4:3
55,10:1
55,49:4
55,56:3
55,57:3
56,10:2
56,48:3
56,49:1
56,50:3
56,55:3
57,10:2
57,49:1
57,50:3
58,10:2

<setup times backward>
1,3:2
1,7:3
1,8:3
1,10:1
1,12:1
1,18:1
1,19:1
1,23:3
1,24:1
1,27:3
2,1:2
2,3:4
2,4:1
2,5:1
2,7:5
2,8:5
2,9:3
2,10:3
2,11:1
2,12:3
2,13:2
2,14:3
2,15:3
2,16:1
2,17:2
2,18:3
2,19:3
2,20:2
2,21:4
2,22:1
2,23:5
2,24:3
2,26:5
2,27:5
2,28:2
2,29:2
2,30:2
2,31:1
2,32:2
2,33:1
2,34:2
2,35:1
2,39:5
2,44:5
2,45:3
2,46:1
2,47:1
2,48:4
2,50:4
3,7:1
3,8:1
3,23:1
4,1:1
4,3:3
4,7:4
4,8:4
4,9:2
4,12:2
4,13:1
4,14:2
4,15:2
4,17:1
4,18:2
4,19:2
4,20:1
4,21:3
4,23:4
4,24:2
4,26:4
4,27:4
4,28:1
4,29:1
4,30:1
4,32:1
4,34:1
4,39:4
4,44:4
4,45:2
4,48:3
4,50:3
4,54:3
4,55:3
5,1:1
5,3:3
5,7:4
5,8:4
5,9:2
5,10:2
5,12:2
5,13:1
5,14:2
5,15:2
5,17:1
5,18:2
5,19:2
5,20:1
5,21:3
5,23:4
5,24:2
5,26:4
5,27:4
5,28:1
5,29:1
5,30:1
5,32:1
5,34:1
5,44:4
6,1:2
6,3:4
6,4:1
6,5:1
6,7:5
6,8:5
6,9:3
6,10:3
6,11:1
6,12:3
6,13:2
6,14:3
6,15:3
6,16:1
6,17:2
6,18:3
6,19:3
6,20:2
6,21:4
6,22:1
6,25:1
6,26:5
6,27:5
6,28:2
6,29:2
6,30:2
6,32:2
6,33:1
6,34:2
6,35:1
6,44:5
9,3:1
9,7:2
9,8:2
9,23:2
9,27:2
10,3:1
10,7:2
10,8:2
10,21:1
10,23:2
10,26:2
10,27:2
10,39:2
10,44:2
10,48:1
10,50:1
10,54:1
10,55:1
11,1:1
11,3:3
11,7:4
11,8:4
11,9:2
11,10:2
11,12:2
11,18:2
11,19:2
11,23:4
11,24:2
11,27:4
11,28:1
11,30:1
11,32:1
11,34:1
12,3:1
12,7:2
12,8:2
12,23:2
12,27:2
13,3:2
13,7:3
13,8:3
13,9:1
13,10:1
13,12:1
13,14:1
13,15:1
13,18:1
13,19:1
13,23:3
13,24:1
13,27:3
14,3:1
14,7:2
14,8:2
14,23:2
14,27:2
15,3:1
15,7:2
15,8:2
15,23:2
15,27:2
16,1:1
16,3:3
16,7:4
16,8:4
16,9:2
16,10:2
16,12:2
16,13:1
16,14:2
16,15:2
16,17:1
16,20:1
16,21:3
16,24:2
16,26:4
16,27:4
16,28:1
16,29:1
16,30:1
16,32:1
16,34:1
16,44:4
17,3:2
17,7:3
17,8:3
17,9:1
17,10:1
17,12:1
17,14:1
17,15:1
17,18:1
17,19:1
17,23:3
17,24:1
17,27:3
18,3:1
18,7:2
18,8:2
18,21:1
18,26:2
18,27:2
18,44:2
19,3:1
19,7:2
19,8:2
19,21:1
19,26:2
19,27:2
19,44:2
20,3:2
20,7:3
20,8:3
20,9:1
20,10:1
20,12:1
20,14:1
20,15:1
20,18:1
20,19:1
20,23:3
20,24:1
20,27:3
21,7:1
21,8:1
21,23:1
21,27:1
22,1:1
22,3:3
22,7:4
22,8:4
22,9:2
22,10:2
22,12:2
22,13:1
22,14:2
22,15:2
22,17:1
22,18:2
22,19:2
22,20:1
22,21:3
22,23:4
22,24:2
22,26:4
22,28:1
22,29:1
22,32:1
22,44:4
24,3:1
24,7:2
24,8:2
24,21:1
24,23:2
24,26:2
24,27:2
24,44:2
25,1:1
25,3:3
25,7:4
25,8:4
25,9:2
25,10:2
25,12:2
25,13:1
25,14:2
25,15:2
25,17:1
25,18:2
25,19:2
25,20:1
25,21:3
25,23:4
25,24:2
25,26:4
25,27:4
25,28:1
25,29:1
25,30:1
25,32:1
25,34:1
25,39:4
25,44:4
25,45:2
25,48:3
25,50:3
28,3:2
28,7:3
28,8:3
28,9:1
28,10:1
28,12:1
28,14:1
28,15:1
28,18:1
28,19:1
28,21:2
28,23:3
28,24:1
28,26:3
28,27:3
28,39:3
28,44:3
29,3:2
29,7:3
29,8:3
29,9:1
29,10:1
29,12:1
29,14:1
29,15:1
29,18:1
29,19:1
29,21:2
29,23:3
29,24:1
29,26:3
29,27:3
29,44:3
30,3:2
30,7:3
30,8:3
30,9:1
30,10:1
30,12:1
30,14:1
30,15:1
30,18:1
30,19:1
30,21:2
30,23:3
30,24:1
30,26:3
30,27:3
30,44:3
31,1:1
31,3:3
31,7:4
31,8:4
31,9:2
31,10:2
31,12:2
31,13:1
31,14:2
31,15:2
31,17:1
31,18:2
31,19:2
31,20:1
31,21:3
31,23:4
31,24:2
31,26:4
31,27:4
31,28:1
31,29:1
31,30:1
31,32:1
31,34:1
31,44:4
32,3:2
32,7:3
32,8:3
32,9:1
32,10:1
32,12:1
32,14:1
32,15:1
32,18:1
32,19:1
32,21:2
32,23:3
32,24:1
32,26:3
32,27:3
32,39:3
32,44:3
33,1:1
33,3:3
33,7:4
33,8:4
33,9:2
33,10:2
33,12:2
33,13:1
33,14:2
33,15:2
33,17:1
33,18:2
33,19:2
33,20:1
33,21:3
33,23:4
33,24:2
33,26:4
33,27:4
33,28:1
33,29:1
33,30:1
33,32:1
33,34:1
33,39:4
33,44:4
34,3:2
34,7:3
34,8:3
34,9:1
34,10:1
34,12:1
34,14:1
34,15:1
34,18:1
34,19:1
34,21:2
34,23:3
34,24:1
34,26:3
34,27:3
34,44:3
35,1:1
35,3:3
35,7:4
35,8:4
35,9:2
35,10:2
35,12:2
35,13:1
35,14:2
35,15:2
35,17:1
35,18:2
35,19:2
35,20:1
35,21:3
35,23:4
35,24:2
35,26:4
35,27:4
35,28:1
35,29:1
35,30:1
35,32:1
35,34:1
35,39:4
35,44:4
36,1:2
36,3:4
36,4:1
36,5:1
36,7:5
36,8:5
36,9:3
36,10:3
36,11:1
36,12:3
36,13:2
36,14:3
36,15:3
36,16:1
36,17:2
36,18:3
36,19:3
36,20:2
36,21:4
36,22:1
36,23:5
36,24:3
36,25:1
36,26:5
36,27:5
36,28:2
36,29:2
36,30:2
36,31:1
36,32:2
36,33:1
36,34:2
36,35:1
36,44:5
37,1:2
37,3:4
37,4:1
37,5:1
37,7:5
37,8:5
37,9:3
37,10:3
37,11:1
37,12:3
37,13:2
37,14:3
37,15:3
37,16:1
37,17:2
37,18:3
37,19:3
37,20:2
37,21:4
37,22:1
37,23:5
37,24:3
37,25:1
37,26:5
37,27:5
37,28:2
37,29:2
37,30:2
37,31:1
37,32:2
37,33:1
37,34:2
37,35:1
37,44:5
38,1:2
38,3:4
38,4:1
38,5:1
38,7:5
38,8:5
38,9:3
38,10:3
38,11:1
38,12:3
38,13:2
38,14:3
38,15:3
38,16:1
38,17:2
38,18:3
38,19:3
38,20:2
38,21:4
38,22:1
38,23:5
38,24:3
38,25:1
38,26:5
38,27:5
38,28:2
38,29:2
38,30:2
38,31:1
38,32:2
38,33:1
38,34:2
38,35:1
38,39:5
38,44:5
38,45:3
38,46:1
38,47:1
38,48:4
38,50:4
40,1:2
40,3:4
40,4:1
40,5:1
40,7:5
40,8:5
40,9:3
40,10:3
40,11:1
40,12:3
40,13:2
40,14:3
40,15:3
40,16:1
40,17:2
40,18:3
40,19:3
40,20:2
40,21:4
40,22:1
40,23:5
40,24:3
40,25:1
40,26:5
40,27:5
40,28:2
40,29:2
40,30:2
40,31:1
40,32:2
40,33:1
40,34:2
40,35:1
40,39:5
40,44:5
41,1:2
41,3:4
41,4:1
41,5:1
41,7:5
41,8:5
41,9:3
41,10:3
41,11:1
41,12:3
41,13:2
41,14:3
41,15:3
41,16:1
41,17:2
41,18:3
41,19:3
41,20:2
41,21:4
41,22:1
41,23:5
41,24:3
41,25:1
41,26:5
41,27:5
41,28:2
41,29:2
41,30:2
41,31:1
41,32:2
41,33:1
41,34:2
41,35:1
41,39:5
41,44:5
42,1:2
42,3:4
42,4:1
42,5:1
42,7:5
42,8:5
42,9:3
42,10:3
42,11:1
42,12:3
42,13:2
42,14:3
42,15:3
42,16:1
42,17:2
42,18:3
42,19:3
42,20:2
42,21:4
42,22:1
42,23:5
42,24:3
42,25:1
42,26:5
42,27:5
42,28:2
42,29:2
42,30:2
42,31:1
42,32:2
42,33:1
42,34:2
42,35:1
42,39:5
42,44:5
43,1:2
43,3:4
43,4:1
43,5:1
43,7:5
43,8:5
43,9:3
43,10:3
43,11:1
43,12:3
43,13:2
43,14:3
43,15:3
43,16:1
43,17:2
43,18:3
43,19:3
43,20:2
43,21:4
43,22:1
43,23:5
43,24:3
43,25:1
43,26:5
43,27:5
43,28:2
43,29:2
43,30:2
43,31:1
43,32:2
43,33:1
43,34:2
43,35:1
43,39:5
43,44:5
45,3:1
45,7:2
45,8:2
45,21:1
45,23:2
45,26:2
45,27:2
45,39:2
45,44:2
46,1:1
46,3:3
46,7:4
46,8:4
46,9:2
46,10:2
46,12:2
46,13:1
46,14:2
46,15:2
46,17:1
46,18:2
46,19:2
46,20:1
46,21:3
46,23:4
46,24:2
46,26:4
46,27:4
46,28:1
46,29:1
46,30:1
46,32:1
46,34:1
46,39:4
46,44:4
46,45:2
46,48:3
47,1:1
47,3:3
47,7:4
47,8:4
47,9:2
47,10:2
47,12:2
47,13:1
47,14:2
47,15:2
47,17:1
47,18:2
47,19:2
47,20:1
47,21:3
47,23:4
47,24:2
47,26:4
47,27:4
47,28:1
47,29:1
47,30:1
47,32:1
47,34:1
47,39:4
47,44:4
47,45:2
47,48:3
47,50:3
48,7:1
48,8:1
48,23:1
48,26:1
48,27:1
48,39:1
48,44:1
49,1:2
49,3:4
49,4:1
49,5:1
49,7:5
49,8:5
49,9:3
49,10:3
49,11:1
49,12:3
49,13:2
49,14:3
49,15:3
49,16:1
49,17:2
49,18:3
49,19:3
49,20:2
49,21:4
49,22:1
49,23:5
49,24:3
49,25:1
49,26:5
49,27:5
49,28:2
49,29:2
49,30:2
49,31:1
49,32:2
49,33:1
49,34:2
49,35:1
49,39:5
49,44:5
49,45:3
49,46:1
49,47:1
49,48:4
49,50:4
49,54:4
49,55:4
49,56:1
49,57:1
50,7:1
50,8:1
50,23:1
50,26:1
50,27:1
50,39:1
50,44:1
51,1:2
51,3:4
51,4:1
51,5:1
51,7:5
51,8:5
51,9:3
51,10:3
51,11:1
51,12:3
51,13:2
51,14:3
51,15:3
51,16:1
51,17:2
51,18:3
51,19:3
51,20:2
51,21:4
51,22:1
51,23:5
51,24:3
51,25:1
51,26:5
51,27:5
51,28:2
51,29:2
51,30:2
51,31:1
51,32:2
51,33:1
51,34:2
51,35:1
51,39:5
51,44:5
51,45:3
51,46:1
51,47:1
51,48:4
51,50:4
52,1:2
52,3:4
52,4:1
52,5:1
52,7:5
52,8:5
52,9:3
52,10:3
52,11:1
52,12:3
52,13:2
52,14:3
52,15:3
52,16:1
52,17:2
52,18:3
52,19:3
52,20:2
52,21:4
52,22:1
52,23:5
52,24:3
52,25:1
52,26:5
52,27:5
52,28:2
52,29:2
52,30:2
52,31:1
52,32:2
52,33:1
52,34:2
52,35:1
52,39:5
52,44:5
52,45:3
52,46:1
52,47:1
52,48:4
52,50:4
53,1:2
53,3:4
53,4:1
53,5:1
53,7:5
53,8:5
53,9:3
53,10:3
53,11:1
53,12:3
53,13:2
53,14:3
53,15:3
53,16:1
53,17:2
53,18:3
53,19:3
53,20:2
53,21:4
53,22:1
53,23:5
53,24:3
53,25:1
53,26:5
53,27:5
53,28:2
53,29:2
53,30:2
53,31:1
53,32:2
53,33:1
53,34:2
53,35:1
53,39:5
53,44:5
53,45:3
53,46:1
53,47:1
53,48:4
53,50:4
54,7:1
54,8:1
54,23:1
54,26:1
54,27:1
54,39:1
54,44:1
55,7:1
55,8:1
55,23:1
55,26:1
55,27:1
55,39:1
55,44:1
56,1:1
56,3:3
56,7:4
56,8:4
56,9:2
56,10:2
56,12:2
56,13:1
56,14:2
56,15:2
56,17:1
56,18:2
56,19:2
56,20:1
56,21:3
56,23:4
56,24:2
56,26:4
56,27:4
56,28:1
56,29:1
56,30:1
56,32:1
56,34:1
56,39:4
56,44:4
56,45:2
56,48:3
56,50:3
56,54:3
56,55:3
57,1:1
57,3:3
57,7:4
57,8:4
57,9:2
57,10:2
57,12:2
57,13:1
57,14:2
57,15:2
57,17:1
57,18:2
57,19:2
57,20:1
57,21:3
57,23:4
57,24:2
57,26:4
57,27:4
57,28:1
57,29:1
57,30:1
57,32:1
57,34:1
57,39:4
57,44:4
57,45:2
57,48:3
57,50:3
57,54:3
57,55:3
58,1:1
58,3:3
58,7:4
58,8:4
58,9:2
58,10:2
58,12:2
58,13:1
58,14:2
58,15:2
58,17:1
58,18:2
58,19:2
58,20:1
58,21:3
58,23:4
58,24:2
58,26:4
58,27:4
58,28:1
58,29:1
58,30:1
58,32:1
58,34:1
58,39:4
58,44:4
58,45:2
58,48:3
58,50:3
58,54:3
58,55:3

<end>

<optimal SALBP-1 value>
23


<rand seed>
467321153

